(declare-const X String)
; loomcompany\x2EcomBasedURLS\swww\.fast-finder\.com
(assert (not (str.in_re X (re.++ (str.to_re "loomcompany.comBasedURLS") (re.union (str.to_re " ") (str.to_re "\u{9}") (str.to_re "\u{a}") (str.to_re "\u{c}") (str.to_re "\u{d}")) (str.to_re "www.fast-finder.com\u{a}")))))
; HANDY\s+Exploiter\w+\x2Fr\x2Fkeys\x2FkeysS\x3aUsers\x5cIterenet
(assert (str.in_re X (re.++ (str.to_re "HANDY") (re.+ (re.union (str.to_re " ") (str.to_re "\u{9}") (str.to_re "\u{a}") (str.to_re "\u{c}") (str.to_re "\u{d}"))) (str.to_re "Exploiter") (re.+ (re.union (re.range "0" "9") (re.range "A" "Z") (re.range "a" "z") (str.to_re "_"))) (str.to_re "/r/keys/keysS:Users\u{5c}Iterenet\u{a}"))))
(check-sat)

(exit)
